BAYES
223
2 2 2 2 2 2 2 2 2 2 2 2 2 2 2 2 2 2 2 2 2 2 2 2 2 2 2 2 2 2 2 2 2 2 2 2 2 2 2 2 2 2 2 2 2 2 2 2 2 2 2 2 2 2 2 2 2 2 2 2 2 2 2 2 2 2 2 2 2 2 2 2 2 2 2 2 2 2 2 2 2 2 2 2 2 2 2 2 2 2 2 2 2 2 2 2 2 2 2 2 2 2 2 2 2 2 2 2 2 2 2 2 2 2 2 2 2 2 2 2 2 2 2 2 2 2 2 2 2 2 2 2 2 2 2 2 2 2 2 2 2 2 2 2 2 2 2 2 2 2 2 2 2 2 2 2 2 2 2 2 2 2 2 2 2 2 2 2 2 2 2 2 2 2 2 2 2 2 2 2 2 2 2 2 2 2 2 2 2 2 2 2 2 2 2 2 2 2 2 2 2 2 2 2 2 2 2 2 2 2 2 2 2 2 2 2 2 2 2 2 2 2 2
223
1 0
1 1
1 2
1 3
1 4
1 5
1 6
1 7
1 8
1 9
1 10
1 11
1 12
1 13
1 14
1 15
1 16
1 17
1 18
1 19
1 20
1 21
1 22
1 23
1 24
1 25
1 26
1 27
1 28
1 29
1 30
1 31
1 32
1 33
1 34
1 35
1 36
1 37
1 38
1 39
1 40
1 41
1 42
1 43
1 44
1 45
1 46
1 47
1 48
1 49
1 50
1 51
1 52
1 53
1 54
1 55
1 56
1 57
1 58
1 59
1 60
1 61
1 62
1 63
1 64
1 65
1 66
1 67
1 68
1 69
1 70
1 71
1 72
1 73
1 74
1 75
1 76
1 77
1 78
1 79
1 80
1 81
1 82
1 83
1 84
1 85
1 86
1 87
1 88
2 1 89
2 18 90
2 18 91
2 18 92
3 38 36 93
3 30 38 94
2 41 95
2 41 96
3 32 45 97
3 50 4 98
3 0 59 99
3 50 61 100
3 59 61 101
3 15 73 102
3 77 61 103
2 79 104
2 79 105
2 79 106
2 79 107
3 52 81 108
4 49 39 91 109
3 94 89 110
4 63 101 93 111
5 29 37 102 105 112
3 108 66 113
4 110 103 63 114
3 111 99 115
3 112 54 116
3 113 53 117
4 24 116 60 118
3 118 58 119
4 112 119 43 120
4 112 119 5 121
3 120 84 122
4 100 121 7 123
4 114 121 40 124
3 121 64 125
4 115 121 19 126
4 12 122 70 127
3 124 17 128
3 126 17 129
3 127 44 130
3 128 53 131
3 129 53 132
4 120 130 62 133
3 133 57 134
4 126 134 67 135
4 124 134 80 136
4 125 134 27 137
4 123 134 65 138
3 135 75 139
3 136 75 140
3 137 75 141
3 138 75 142
5 129 135 139 31 143
4 136 140 46 144
4 137 141 46 145
5 22 138 142 46 146
7 134 139 140 141 142 28 147
3 146 10 148
4 147 146 10 149
3 73 148 150
3 55 149 151
3 151 150 152
3 152 96 153
3 153 83 154
3 154 9 155
3 155 2 156
4 153 156 13 157
4 153 156 68 158
3 157 72 159
3 157 6 160
3 157 47 161
5 52 98 158 88 162
4 97 158 51 163
3 160 17 164
3 162 48 165
4 158 162 42 166
5 158 163 162 14 167
6 163 49 69 39 92 168
4 158 163 42 169
3 164 53 170
4 153 167 26 171
3 171 21 172
3 172 70 173
3 173 44 174
4 171 174 56 175
3 175 74 176
3 175 74 177
3 176 23 178
3 176 82 179
3 176 87 180
3 86 176 181
3 177 23 182
3 177 87 183
3 86 177 184
3 177 82 185
3 75 178 186
3 180 76 187
3 180 76 188
3 75 182 189
3 183 76 190
3 183 76 191
3 185 75 192
3 185 75 193
3 181 186 194
3 187 75 195
3 188 75 196
3 184 189 197
4 168 190 16 198
3 190 75 199
3 191 75 200
6 22 159 179 192 46 201
6 22 159 185 193 34 202
4 176 194 33 203
6 160 176 194 192 20 204
6 165 166 187 195 8 205
6 109 169 188 196 8 206
6 168 169 188 196 34 207
6 160 177 197 193 20 208
4 177 197 33 209
5 169 199 198 3 210
6 109 169 190 199 8 211
6 165 166 191 200 8 212
4 205 203 10 213
4 212 209 10 214
4 212 205 10 215
3 55 213 216
3 55 214 217
3 73 215 218
4 217 218 216 219
3 219 71 220
5 108 160 220 11 221
3 221 78 222
2
 0.5 0.5
2
 0.02 0.98
2
 0.5 0.5
2
 0.4 0.6
2
 0.1 0.9
2
 0.5 0.5
2
 0.5 0.5
2
 0.6 0.4
2
 0.7 0.3
2
 0.5 0.5
2
 0.6 0.4
2
 0.5 0.5
2
 0.02 0.98
2
 0.5 0.5
2
 0.2 0.8
2
 0.02 0.98
2
 0.1 0.9
2
 0.3 0.7
2
 0.646 0.354
2
 0.5 0.5
2
 0.5 0.5
2
 0.5 0.5
2
 0.02 0.98
2
 0.6 0.4
2
 0.02 0.98
2
 0.02 0.98
2
 0.5 0.5
2
 0.5 0.5
2
 0.5 0.5
2
 0.02 0.98
2
 0.5 0.5
2
 0.5 0.5
2
 0.02 0.98
2
 0.5 0.5
2
 0.5 0.5
2
 0.02 0.98
2
 0.5 0.5
2
 0.02 0.98
2
 0.02 0.98
2
 0.5 0.5
2
 0.5 0.5
2
 0.1 0.9
2
 0.5 0.5
2
 0.5 0.5
2
 0.2 0.8
2
 0.1 0.9
2
 0.5 0.5
2
 0.7 0.3
2
 0.3 0.7
2
 0.02 0.98
2
 0.02 0.98
2
 0.5 0.5
2
 0.02 0.98
2
 0.5 0.5
2
 0.5 0.5
2
 0.5 0.5
2
 0.5 0.5
2
 0.5 0.5
2
 0.5 0.5
2
 0.02 0.98
2
 0.5 0.5
2
 0.5 0.5
2
 0.5 0.5
2
 0.5 0.5
2
 0.5 0.5
2
 0.5 0.5
2
 0.5 0.5
2
 0.5 0.5
2
 0.5 0.5
2
 0.02 0.98
2
 0.5 0.5
2
 0.5 0.5
2
 0.5 0.5
2
 0.5 0.5
2
 0.5 0.5
2
 0.5 0.5
2
 0.5 0.5
2
 0.02 0.98
2
 0.5 0.5
2
 0.7 0.3
2
 0.5 0.5
2
 0.5 0.5
2
 0.5 0.5
2
 0.5 0.5
2
 0.5 0.5
2
 0.02 0.98
2
 0.5 0.5
2
 0.5 0.5
2
 0.3 0.7
4
 1.0 0.0 0.0001 0.9999
4
 0.8 0.2 0.0 1.0
4
 0.2 0.8 1.0 0.0
4
 1.0 0.0 0.0 1.0
8
 0.8 0.2 0.8 0.2 0.8 0.2 8e-05 0.99992
8
 1.0 0.0 1.0 0.0 1.0 0.0 0.0001 0.9999
4
 0.9 0.1 0.0 1.0
4
 0.95 0.05 0.0 1.0
8
 0.9 0.1 0.9 0.1 0.9 0.1 9e-05 0.99991
8
 0.9 0.1 0.9 0.1 0.9 0.1 9e-05 0.99991
8
 1.0 0.0 1.0 0.0 1.0 0.0 0.0001 0.9999
8
 0.8 0.2 0.8 0.2 0.8 0.2 8e-05 0.99992
8
 0.8 0.2 0.8 0.2 0.8 0.2 8e-05 0.99992
8
 0.8 0.2 0.8 0.2 0.8 0.2 8e-05 0.99992
8
 0.8 0.2 0.8 0.2 0.8 0.2 8e-05 0.99992
4
 0.9 0.1 0.0 1.0
4
 0.8 0.2 0.0 1.0
4
 0.9 0.1 0.0 1.0
4
 0.8 0.2 0.0 1.0
8
 0.8 0.2 0.8 0.2 0.8 0.2 8e-05 0.99992
16
 0.8 0.2 0.8 0.2 0.8 0.2 0.8 0.2 0.8 0.2 8e-05 0.99992 0.8 0.2 0.8 0.2
8
 0.8 0.2 0.0 1.0 0.0 1.0 0.0 1.0
16
 1.0 0.0 1.0 0.0 1.0 0.0 1.0 0.0 1.0 0.0 1.0 0.0 1.0 0.0 0.0001 0.9999
32
 0.8 0.2 0.8 0.2 0.8 0.2 0.8 0.2 0.8 0.2 0.8 0.2 0.8 0.2 0.8 0.2 0.8 0.2 0.8 0.2 0.8 0.2 0.8 0.2 0.8 0.2 0.8 0.2 0.8 0.2 8e-05 0.99992
8
 0.8 0.2 0.8 0.2 0.8 0.2 8e-05 0.99992
16
 0.8 0.2 0.8 0.2 0.8 0.2 0.8 0.2 0.8 0.2 0.8 0.2 0.8 0.2 8e-05 0.99992
8
 0.8 0.2 0.0 1.0 0.0 1.0 0.0 1.0
8
 0.8 0.2 0.8 0.2 0.8 0.2 8e-05 0.99992
8
 0.9 0.1 0.9 0.1 0.9 0.1 9e-05 0.99991
16
 0.9 0.1 0.9 0.1 0.9 0.1 0.9 0.1 0.9 0.1 0.9 0.1 0.9 0.1 9e-05 0.99991
8
 0.8 0.2 0.8 0.2 0.8 0.2 8e-05 0.99992
16
 0.8 0.2 0.8 0.2 0.8 0.2 0.8 0.2 0.8 0.2 0.8 0.2 0.8 0.2 8e-05 0.99992
16
 0.8 0.2 0.8 0.2 0.8 0.2 0.8 0.2 0.8 0.2 0.8 0.2 0.8 0.2 8e-05 0.99992
8
 0.8 0.2 0.8 0.2 0.8 0.2 8e-05 0.99992
16
 0.8 0.2 0.8 0.2 0.8 0.2 0.8 0.2 0.8 0.2 0.8 0.2 0.8 0.2 8e-05 0.99992
16
 0.8 0.2 0.8 0.2 0.8 0.2 0.8 0.2 0.8 0.2 0.8 0.2 0.8 0.2 8e-05 0.99992
8
 0.8 0.2 0.8 0.2 0.8 0.2 8e-05 0.99992
16
 0.8 0.2 0.8 0.2 0.8 0.2 0.8 0.2 0.8 0.2 0.8 0.2 0.8 0.2 8e-05 0.99992
16
 0.8 0.2 0.8 0.2 0.8 0.2 0.8 0.2 0.8 0.2 0.8 0.2 0.8 0.2 8e-05 0.99992
8
 0.8 0.2 0.8 0.2 0.8 0.2 8e-05 0.99992
8
 0.8 0.2 0.8 0.2 0.8 0.2 8e-05 0.99992
8
 0.8 0.2 0.8 0.2 0.8 0.2 8e-05 0.99992
8
 0.9 0.1 0.9 0.1 0.9 0.1 9e-05 0.99991
8
 0.9 0.1 0.9 0.1 0.9 0.1 9e-05 0.99991
16
 0.8 0.2 0.8 0.2 0.8 0.2 0.8 0.2 0.8 0.2 0.8 0.2 0.8 0.2 8e-05 0.99992
8
 0.8 0.2 0.8 0.2 0.8 0.2 8e-05 0.99992
16
 0.8 0.2 0.8 0.2 0.8 0.2 0.8 0.2 0.8 0.2 0.8 0.2 0.8 0.2 8e-05 0.99992
16
 0.8 0.2 0.8 0.2 0.8 0.2 0.8 0.2 0.8 0.2 0.8 0.2 0.8 0.2 8e-05 0.99992
16
 0.8 0.2 0.8 0.2 0.8 0.2 0.8 0.2 0.8 0.2 0.8 0.2 0.8 0.2 8e-05 0.99992
16
 0.8 0.2 0.8 0.2 0.8 0.2 0.8 0.2 0.8 0.2 0.8 0.2 0.8 0.2 8e-05 0.99992
8
 0.8 0.2 0.8 0.2 0.8 0.2 8e-05 0.99992
8
 0.8 0.2 0.8 0.2 0.8 0.2 8e-05 0.99992
8
 0.8 0.2 0.8 0.2 0.8 0.2 8e-05 0.99992
8
 0.8 0.2 0.8 0.2 0.8 0.2 8e-05 0.99992
32
 0.9 0.1 0.9 0.1 0.9 0.1 0.9 0.1 0.9 0.1 0.9 0.1 0.9 0.1 0.9 0.1 0.9 0.1 0.9 0.1 0.9 0.1 0.9 0.1 0.9 0.1 0.9 0.1 0.9 0.1 9e-05 0.99991
16
 0.9 0.1 0.9 0.1 0.9 0.1 0.9 0.1 0.9 0.1 0.9 0.1 0.9 0.1 9e-05 0.99991
16
 0.9 0.1 0.9 0.1 0.9 0.1 0.9 0.1 0.9 0.1 0.9 0.1 0.9 0.1 9e-05 0.99991
32
 0.9 0.1 0.9 0.1 0.9 0.1 0.9 0.1 0.9 0.1 0.9 0.1 0.9 0.1 0.9 0.1 0.9 0.1 0.9 0.1 0.9 0.1 0.9 0.1 0.9 0.1 0.9 0.1 0.9 0.1 9e-05 0.99991
128
 0.9 0.1 0.9 0.1 0.9 0.1 0.9 0.1 0.9 0.1 0.9 0.1 0.9 0.1 0.9 0.1 0.9 0.1 0.9 0.1 0.9 0.1 0.9 0.1 0.9 0.1 0.9 0.1 0.9 0.1 0.9 0.1 0.9 0.1 0.9 0.1 0.9 0.1 0.9 0.1 0.9 0.1 0.9 0.1 0.9 0.1 0.9 0.1 0.9 0.1 0.9 0.1 0.9 0.1 0.9 0.1 0.9 0.1 0.9 0.1 0.9 0.1 0.9 0.1 0.9 0.1 0.9 0.1 0.9 0.1 0.9 0.1 0.9 0.1 0.9 0.1 0.9 0.1 0.9 0.1 0.9 0.1 0.9 0.1 0.9 0.1 0.9 0.1 0.9 0.1 0.9 0.1 0.9 0.1 0.9 0.1 0.9 0.1 0.9 0.1 0.9 0.1 0.9 0.1 0.9 0.1 0.9 0.1 0.9 0.1 0.9 0.1 0.9 0.1 0.9 0.1 0.9 0.1 0.9 0.1 0.9 0.1 0.9 0.1 0.9 0.1 9e-05 0.99991
8
 0.8 0.2 0.8 0.2 0.8 0.2 8e-05 0.99992
16
 0.8 0.2 0.8 0.2 0.8 0.2 0.8 0.2 0.8 0.2 0.8 0.2 0.8 0.2 8e-05 0.99992
8
 1.0 0.0 1.0 0.0 1.0 0.0 0.0001 0.9999
8
 1.0 0.0 1.0 0.0 1.0 0.0 0.0001 0.9999
8
 0.8 0.2 0.0 1.0 0.0 1.0 0.0 1.0
8
 0.8 0.2 0.8 0.2 0.8 0.2 8e-05 0.99992
8
 0.8 0.2 0.8 0.2 0.8 0.2 8e-05 0.99992
8
 0.9 0.1 0.9 0.1 0.9 0.1 9e-05 0.99991
8
 0.8 0.2 0.8 0.2 0.8 0.2 8e-05 0.99992
16
 0.8 0.2 0.8 0.2 0.8 0.2 0.8 0.2 0.8 0.2 0.8 0.2 0.8 0.2 8e-05 0.99992
16
 0.7 0.3 0.7 0.3 0.7 0.3 0.7 0.3 0.7 0.3 0.7 0.3 0.7 0.3 7e-05 0.99993
8
 0.8 0.2 0.8 0.2 0.8 0.2 8e-05 0.99992
8
 0.8 0.2 0.8 0.2 0.8 0.2 8e-05 0.99992
8
 0.8 0.2 0.8 0.2 0.8 0.2 8e-05 0.99992
32
 0.9 0.1 0.9 0.1 0.9 0.1 0.9 0.1 0.9 0.1 0.9 0.1 0.9 0.1 0.9 0.1 0.9 0.1 0.9 0.1 0.9 0.1 0.9 0.1 0.9 0.1 0.9 0.1 0.9 0.1 9e-05 0.99991
16
 0.9 0.1 0.9 0.1 0.9 0.1 0.9 0.1 0.9 0.1 0.9 0.1 0.9 0.1 9e-05 0.99991
8
 0.8 0.2 0.8 0.2 0.8 0.2 8e-05 0.99992
8
 0.8 0.2 0.8 0.2 0.8 0.2 8e-05 0.99992
16
 0.8 0.2 0.8 0.2 0.8 0.2 0.8 0.2 0.8 0.2 0.8 0.2 0.8 0.2 8e-05 0.99992
32
 0.9 0.1 0.9 0.1 0.9 0.1 0.9 0.1 0.9 0.1 0.9 0.1 0.9 0.1 0.9 0.1 0.9 0.1 0.9 0.1 0.9 0.1 0.9 0.1 0.9 0.1 0.9 0.1 0.9 0.1 9e-05 0.99991
64
 0.8 0.2 0.8 0.2 0.8 0.2 0.8 0.2 0.8 0.2 0.8 0.2 0.8 0.2 0.8 0.2 0.8 0.2 0.8 0.2 0.8 0.2 0.8 0.2 0.8 0.2 0.8 0.2 0.8 0.2 0.8 0.2 0.8 0.2 0.8 0.2 0.8 0.2 0.8 0.2 0.8 0.2 0.8 0.2 0.8 0.2 0.8 0.2 0.8 0.2 0.8 0.2 0.8 0.2 0.8 0.2 0.8 0.2 0.8 0.2 0.8 0.2 8e-05 0.99992
16
 0.8 0.2 0.8 0.2 0.8 0.2 0.8 0.2 0.8 0.2 0.8 0.2 0.8 0.2 8e-05 0.99992
8
 0.9 0.1 0.9 0.1 0.9 0.1 9e-05 0.99991
16
 0.8 0.2 0.8 0.2 0.8 0.2 0.8 0.2 0.8 0.2 0.8 0.2 0.8 0.2 8e-05 0.99992
8
 0.8 0.2 0.8 0.2 0.8 0.2 8e-05 0.99992
8
 0.8 0.2 0.8 0.2 0.8 0.2 8e-05 0.99992
8
 0.8 0.2 0.8 0.2 0.8 0.2 8e-05 0.99992
16
 0.8 0.2 0.8 0.2 0.8 0.2 0.8 0.2 0.8 0.2 0.8 0.2 0.8 0.2 8e-05 0.99992
8
 0.8 0.2 0.8 0.2 0.8 0.2 8e-05 0.99992
8
 0.8 0.2 0.8 0.2 0.8 0.2 8e-05 0.99992
8
 0.8 0.2 0.8 0.2 0.8 0.2 8e-05 0.99992
8
 0.8 0.2 0.8 0.2 0.8 0.2 8e-05 0.99992
8
 0.8 0.2 0.8 0.2 0.8 0.2 8e-05 0.99992
8
 1.0 0.0 1.0 0.0 1.0 0.0 0.0001 0.9999
8
 0.8 0.2 0.8 0.2 0.8 0.2 8e-05 0.99992
8
 0.8 0.2 0.8 0.2 0.8 0.2 8e-05 0.99992
8
 1.0 0.0 1.0 0.0 1.0 0.0 0.0001 0.9999
8
 0.8 0.2 0.8 0.2 0.8 0.2 8e-05 0.99992
8
 1.0 0.0 1.0 0.0 1.0 0.0 0.0001 0.9999
8
 0.8 0.2 0.8 0.2 0.8 0.2 8e-05 0.99992
8
 0.8 0.2 0.8 0.2 0.8 0.2 8e-05 0.99992
8
 1.0 0.0 1.0 0.0 1.0 0.0 0.0001 0.9999
8
 0.8 0.2 0.8 0.2 0.8 0.2 8e-05 0.99992
8
 0.8 0.2 0.8 0.2 0.8 0.2 8e-05 0.99992
8
 0.8 0.2 0.8 0.2 0.8 0.2 8e-05 0.99992
8
 0.8 0.2 0.8 0.2 0.8 0.2 8e-05 0.99992
8
 0.8 0.2 0.0 1.0 0.0 1.0 0.0 1.0
8
 0.8 0.2 0.8 0.2 0.8 0.2 8e-05 0.99992
8
 0.8 0.2 0.8 0.2 0.8 0.2 8e-05 0.99992
8
 0.8 0.2 0.0 1.0 0.0 1.0 0.0 1.0
16
 0.8 0.2 0.8 0.2 0.8 0.2 0.8 0.2 0.8 0.2 0.8 0.2 0.8 0.2 8e-05 0.99992
8
 0.8 0.2 0.8 0.2 0.8 0.2 8e-05 0.99992
8
 0.8 0.2 0.8 0.2 0.8 0.2 8e-05 0.99992
64
 0.9 0.1 0.9 0.1 0.9 0.1 0.9 0.1 0.9 0.1 0.9 0.1 0.9 0.1 0.9 0.1 0.9 0.1 0.9 0.1 0.9 0.1 0.9 0.1 0.9 0.1 0.9 0.1 0.9 0.1 0.9 0.1 0.9 0.1 0.9 0.1 0.9 0.1 0.9 0.1 0.9 0.1 0.9 0.1 0.9 0.1 0.9 0.1 0.9 0.1 0.9 0.1 0.9 0.1 0.9 0.1 0.9 0.1 0.9 0.1 0.9 0.1 9e-05 0.99991
64
 0.9 0.1 0.9 0.1 0.9 0.1 0.9 0.1 0.9 0.1 0.9 0.1 0.9 0.1 0.9 0.1 0.9 0.1 0.9 0.1 0.9 0.1 0.9 0.1 0.9 0.1 0.9 0.1 0.9 0.1 0.9 0.1 0.9 0.1 0.9 0.1 0.9 0.1 0.9 0.1 0.9 0.1 0.9 0.1 0.9 0.1 0.9 0.1 0.9 0.1 0.9 0.1 0.9 0.1 0.9 0.1 0.9 0.1 0.9 0.1 0.9 0.1 9e-05 0.99991
16
 0.9 0.1 0.9 0.1 0.9 0.1 0.9 0.1 0.9 0.1 0.9 0.1 0.9 0.1 9e-05 0.99991
64
 0.9 0.1 0.9 0.1 0.9 0.1 0.9 0.1 0.9 0.1 0.9 0.1 0.9 0.1 0.9 0.1 0.9 0.1 0.9 0.1 0.9 0.1 0.9 0.1 0.9 0.1 0.9 0.1 0.9 0.1 0.9 0.1 0.9 0.1 0.9 0.1 0.9 0.1 0.9 0.1 0.9 0.1 0.9 0.1 0.9 0.1 0.9 0.1 0.9 0.1 0.9 0.1 0.9 0.1 0.9 0.1 0.9 0.1 0.9 0.1 0.9 0.1 9e-05 0.99991
64
 0.9 0.1 0.9 0.1 0.9 0.1 0.9 0.1 0.9 0.1 0.9 0.1 0.9 0.1 0.9 0.1 0.9 0.1 0.9 0.1 0.9 0.1 0.9 0.1 0.9 0.1 0.9 0.1 0.9 0.1 0.9 0.1 0.9 0.1 0.9 0.1 0.9 0.1 0.9 0.1 0.9 0.1 0.9 0.1 0.9 0.1 0.9 0.1 0.9 0.1 0.9 0.1 0.9 0.1 0.9 0.1 0.9 0.1 0.9 0.1 0.9 0.1 9e-05 0.99991
64
 0.9 0.1 0.9 0.1 0.9 0.1 0.9 0.1 0.9 0.1 0.9 0.1 0.9 0.1 0.9 0.1 0.9 0.1 0.9 0.1 0.9 0.1 0.9 0.1 0.9 0.1 0.9 0.1 0.9 0.1 0.9 0.1 0.9 0.1 0.9 0.1 0.9 0.1 0.9 0.1 0.9 0.1 0.9 0.1 0.9 0.1 0.9 0.1 0.9 0.1 0.9 0.1 0.9 0.1 0.9 0.1 0.9 0.1 0.9 0.1 0.9 0.1 9e-05 0.99991
64
 0.9 0.1 0.9 0.1 0.9 0.1 0.9 0.1 0.9 0.1 0.9 0.1 0.9 0.1 0.9 0.1 0.9 0.1 0.9 0.1 0.9 0.1 0.9 0.1 0.9 0.1 0.9 0.1 0.9 0.1 0.9 0.1 0.9 0.1 0.9 0.1 0.9 0.1 0.9 0.1 0.9 0.1 0.9 0.1 0.9 0.1 0.9 0.1 0.9 0.1 0.9 0.1 0.9 0.1 0.9 0.1 0.9 0.1 0.9 0.1 0.9 0.1 9e-05 0.99991
64
 0.9 0.1 0.9 0.1 0.9 0.1 0.9 0.1 0.9 0.1 0.9 0.1 0.9 0.1 0.9 0.1 0.9 0.1 0.9 0.1 0.9 0.1 0.9 0.1 0.9 0.1 0.9 0.1 0.9 0.1 0.9 0.1 0.9 0.1 0.9 0.1 0.9 0.1 0.9 0.1 0.9 0.1 0.9 0.1 0.9 0.1 0.9 0.1 0.9 0.1 0.9 0.1 0.9 0.1 0.9 0.1 0.9 0.1 0.9 0.1 0.9 0.1 9e-05 0.99991
16
 0.9 0.1 0.9 0.1 0.9 0.1 0.9 0.1 0.9 0.1 0.9 0.1 0.9 0.1 9e-05 0.99991
32
 0.9 0.1 0.9 0.1 0.9 0.1 0.9 0.1 0.9 0.1 0.9 0.1 0.9 0.1 0.9 0.1 0.9 0.1 0.9 0.1 0.9 0.1 0.9 0.1 0.9 0.1 0.9 0.1 0.9 0.1 9e-05 0.99991
64
 0.9 0.1 0.9 0.1 0.9 0.1 0.9 0.1 0.9 0.1 0.9 0.1 0.9 0.1 0.9 0.1 0.9 0.1 0.9 0.1 0.9 0.1 0.9 0.1 0.9 0.1 0.9 0.1 0.9 0.1 0.9 0.1 0.9 0.1 0.9 0.1 0.9 0.1 0.9 0.1 0.9 0.1 0.9 0.1 0.9 0.1 0.9 0.1 0.9 0.1 0.9 0.1 0.9 0.1 0.9 0.1 0.9 0.1 0.9 0.1 0.9 0.1 9e-05 0.99991
64
 0.9 0.1 0.9 0.1 0.9 0.1 0.9 0.1 0.9 0.1 0.9 0.1 0.9 0.1 0.9 0.1 0.9 0.1 0.9 0.1 0.9 0.1 0.9 0.1 0.9 0.1 0.9 0.1 0.9 0.1 0.9 0.1 0.9 0.1 0.9 0.1 0.9 0.1 0.9 0.1 0.9 0.1 0.9 0.1 0.9 0.1 0.9 0.1 0.9 0.1 0.9 0.1 0.9 0.1 0.9 0.1 0.9 0.1 0.9 0.1 0.9 0.1 9e-05 0.99991
16
 0.8 0.2 0.8 0.2 0.8 0.2 0.8 0.2 0.8 0.2 0.8 0.2 0.8 0.2 8e-05 0.99992
16
 0.8 0.2 0.8 0.2 0.8 0.2 0.8 0.2 0.8 0.2 0.8 0.2 0.8 0.2 8e-05 0.99992
16
 0.8 0.2 0.8 0.2 0.8 0.2 0.8 0.2 0.8 0.2 0.8 0.2 0.8 0.2 8e-05 0.99992
8
 1.0 0.0 1.0 0.0 1.0 0.0 0.0001 0.9999
8
 1.0 0.0 1.0 0.0 1.0 0.0 0.0001 0.9999
8
 1.0 0.0 1.0 0.0 1.0 0.0 0.0001 0.9999
16
 0.8 0.2 0.0 1.0 0.0 1.0 0.0 1.0 0.0 1.0 0.0 1.0 0.0 1.0 0.0 1.0
8
 0.7 0.3 0.7 0.3 0.7 0.3 7e-05 0.99993
32
 0.8 0.2 0.8 0.2 0.8 0.2 0.8 0.2 0.8 0.2 0.8 0.2 0.8 0.2 0.8 0.2 0.8 0.2 0.8 0.2 0.8 0.2 0.8 0.2 0.8 0.2 0.8 0.2 0.8 0.2 8e-05 0.99992
8
 0.9 0.1 0.9 0.1 0.9 0.1 9e-05 0.99991
